30
0   127   130
1   126   128
2   63   66
3   66   66
4   35   33
5   32   35
6   16   19
7   19   20
8   8   11
9   10   9
10   8   4
11   6   4
12   2   2
13   6   2
14   4   2
15   4   1
16   5   2
17   4   4
18   5   2
19   3   2
20   2   4
21   3   1
22   4   5
23   1   2
24   3   1
25   3   5
26   4   5
27   2   3
28   3   5
29   4   5
250
